NAME : prob30e
TYPE : PDTSP
DIMENSION : 61
EDGE_WEIGHT_TYPE : EUC_2D
NODE_COORD_SECTION
1 888 295
2 836 250
3 265 223
4 19 554
5 380 172
6 942 601
7 379 734
8 80 91
9 800 33
10 807 444
11 138 443
12 869 386
13 397 491
14 84 569
15 429 797
16 216 51
17 661 979
18 244 945
19 56 761
20 913 825
21 600 447
22 450 950
23 744 707
24 38 130
25 129 144
26 590 297
27 934 465
28 9 751
29 534 603
30 426 460
31 98 766
32 425 83
33 703 912
34 515 13
35 571 411
36 571 276
37 863 814
38 790 644
39 911 495
40 397 603
41 812 0
42 486 530
43 634 949
44 643 553
45 274 209
46 388 428
47 737 448
48 778 466
49 799 365
50 211 62
51 819 482
52 350 36
53 832 75
54 308 383
55 761 9
56 402 598
57 958 240
58 782 798
59 875 638
60 601 963
61 52 405
PICKUP_AND_DELIVERY_SECTION
1 0 0 0 0 0 0
2 0 0 0 0 32 0
3 0 0 0 0 33 0
4 0 0 0 0 34 0
5 0 0 0 0 35 0
6 0 0 0 0 36 0
7 0 0 0 0 37 0
8 0 0 0 0 38 0
9 0 0 0 0 39 0
10 0 0 0 0 40 0
11 0 0 0 0 41 0
12 0 0 0 0 42 0
13 0 0 0 0 43 0
14 0 0 0 0 44 0
15 0 0 0 0 45 0
16 0 0 0 0 46 0
17 0 0 0 0 47 0
18 0 0 0 0 48 0
19 0 0 0 0 49 0
20 0 0 0 0 50 0
21 0 0 0 0 51 0
22 0 0 0 0 52 0
23 0 0 0 0 53 0
24 0 0 0 0 54 0
25 0 0 0 0 55 0
26 0 0 0 0 56 0
27 0 0 0 0 57 0
28 0 0 0 0 58 0
29 0 0 0 0 59 0
30 0 0 0 0 60 0
31 0 0 0 0 61 0
32 0 0 0 0 0 2
33 0 0 0 0 0 3
34 0 0 0 0 0 4
35 0 0 0 0 0 5
36 0 0 0 0 0 6
37 0 0 0 0 0 7
38 0 0 0 0 0 8
39 0 0 0 0 0 9
40 0 0 0 0 0 10
41 0 0 0 0 0 11
42 0 0 0 0 0 12
43 0 0 0 0 0 13
44 0 0 0 0 0 14
45 0 0 0 0 0 15
46 0 0 0 0 0 16
47 0 0 0 0 0 17
48 0 0 0 0 0 18
49 0 0 0 0 0 19
50 0 0 0 0 0 20
51 0 0 0 0 0 21
52 0 0 0 0 0 22
53 0 0 0 0 0 23
54 0 0 0 0 0 24
55 0 0 0 0 0 25
56 0 0 0 0 0 26
57 0 0 0 0 0 27
58 0 0 0 0 0 28
59 0 0 0 0 0 29
60 0 0 0 0 0 30
61 0 0 0 0 0 31
DEPOT_SECTION
1 
-1
EOF
